myproject/instances/20nodes/rnd1_20.tsp
NAME : rnd1_20.tsp
TYPE : TSP
DIMENSION : 20
EDGE_WEIGHT_TYPE : EUC_2D
NODE_COORD_SECTION
0 755 225
1 987 277
2 55 727
3 913 656
4 952 493
5 504 925
6 715 121
7 226 802
8 322 299
9 907 913
10 598 856
11 522 861
12 497 615
13 13 786
14 913 103
15 342 979
16 231 253
17 193 313
18 355 790
19 17 807
