myproject/instances/20nodes/rnd1_20.opt.tour
NAME : rnd1_20.tsp.tsp.opt.tour
TYPE : TOUR
DIMENSION : 20
TOUR_SECTION
1
4
2
8
16
3
17
18
14
9
19
15
6
5
11
20
12
13
7
10
-1